
Log started (V11.0.0) Sun Apr 13 13:00:46 2008

Tried aggregator 1 time.
Reduced MIP has 140 rows, 4001 columns, and 8040 nonzeros.
Presolve time =    0.03 sec.
Clique table members: 100.
MIP emphasis: balance optimality and feasibility.
MIP search method: dynamic search.
Parallel mode: none, using 1 thread.
Root relaxation solution time =    0.13 sec.

        Nodes                                         Cuts/
   Node  Left     Objective  IInf  Best Integer     Best Node    ItCnt     Gap

*     0+    0                         4816.0000        7.4713      656   99.84%
*     0+    0                           17.0000        7.4713      656   56.05%
      0     0        9.8119    41       17.0000      Fract: 4      685   42.28%
*     0+    0                           16.0000        9.8119      685   38.68%
      0     0       11.1345    25       16.0000      Cuts: 22      704   30.41%
*     0+    0                           15.0000       11.1345      704   25.77%
      0     0       14.0000    12       15.0000       Cuts: 5      712    6.67%
*     0+    0                           14.0000       14.0000      712    0.00%

Clique cuts applied:  3
Implied bound cuts applied:  1
Mixed integer rounding cuts applied:  13

Solution pool: 5 solutions saved.

MIP - Integer optimal solution:  Objective = 1.4000000000e+001
Solution time =    0.41 sec.  Iterations = 712  Nodes = 0


Incumbent solution
Variable Name           Solution Value
Cmax                         14.000000
X_1_24                        1.000000
X_2_23                        1.000000
X_3_10                        1.000000
X_4_27                        1.000000
X_5_18                        1.000000
X_6_33                        1.000000
X_7_11                        1.000000
X_8_5                         1.000000
X_9_8                         1.000000
X_10_15                       1.000000
X_11_32                       1.000000
X_12_17                       1.000000
X_13_21                       1.000000
X_14_1                        1.000000
X_15_18                       1.000000
X_16_36                       1.000000
X_17_26                       1.000000
X_18_14                       1.000000
X_19_6                        1.000000
X_20_22                       1.000000
X_21_30                       1.000000
X_22_3                        1.000000
X_23_39                       1.000000
X_24_33                       1.000000
X_25_24                       1.000000
X_26_22                       1.000000
X_27_17                       1.000000
X_28_25                       1.000000
X_29_3                        1.000000
X_30_35                       1.000000
X_31_10                       1.000000
X_32_17                       1.000000
X_33_7                        1.000000
X_34_10                       1.000000
X_35_36                       1.000000
X_36_39                       1.000000
X_37_4                        1.000000
X_38_13                       1.000000
X_39_37                       1.000000
X_40_14                       1.000000
X_41_33                       1.000000
X_42_36                       1.000000
X_43_2                        1.000000
X_44_8                        1.000000
X_45_31                       1.000000
X_46_37                       1.000000
X_47_29                       1.000000
X_48_4                        1.000000
X_49_9                        1.000000
X_50_21                       1.000000
X_51_40                       1.000000
X_52_5                        1.000000
X_53_30                       1.000000
X_54_38                       1.000000
X_55_38                       1.000000
X_56_40                       1.000000
X_57_21                       1.000000
X_58_35                       1.000000
X_59_3                        1.000000
X_60_29                       1.000000
X_61_6                        1.000000
X_62_31                       1.000000
X_63_27                       1.000000
X_64_8                        1.000000
X_65_35                       1.000000
X_66_13                       1.000000
X_67_18                       1.000000
X_68_15                       1.000000
X_69_28                       1.000000
X_70_19                       1.000000
X_71_5                        1.000000
X_72_26                       1.000000
X_73_29                       1.000000
X_74_33                       1.000000
X_75_37                       1.000000
X_76_20                       1.000000
X_77_12                       1.000000
X_78_9                        1.000000
X_79_17                       1.000000
X_80_26                       1.000000
X_81_33                       1.000000
X_82_24                       1.000000
X_83_39                       1.000000
X_84_38                       1.000000
X_85_2                        1.000000
X_86_22                       1.000000
X_87_34                       1.000000
X_88_5                        1.000000
X_89_25                       1.000000
X_90_23                       1.000000
X_91_29                       1.000000
X_92_16                       1.000000
X_93_16                       1.000000
X_94_15                       1.000000
X_95_30                       1.000000
X_96_10                       1.000000
X_97_19                       1.000000
X_98_12                       1.000000
X_99_2                        1.000000
X_100_9                       1.000000
All other variables in the range 1-4001 are 0.
